n = 35;
lu = [|148, 1022
      |-686, 169
      |-595, -54
      |-193, 543
      |-972, 1096
      |-103, 928
      |276, 1172
      |-829, 267
      |-1190, 880
      |-1179, -830
      |309, 803
      |-1122, 171
      |-1014, 807
      |-1130, -264
      |-903, 106
      |-582, 170
      |-553, 1089
      |-924, 734
      |-885, 254
      |-567, -21
      |-910, 1136
      |-693, 1010
      |579, 803
      |97, 392
      |-1080, 368
      |-142, 1211
      |643, 836
      |-1041, 1047
      |-756, 154
      |717, 1020
      |-925, -825
      |320, 438
      |-415, 586
      |-1194, 360
      |-162, 1163|];
